
  24    0


   0  15 2 3 4 5 6 7 8 11 12 18 19 20 21 22 23 
   5   4 16 15 14 9 
   1   3 17 15 10 
   4   2 17 13 
   6   2 16 14 
   8   2 16 14 
  10   2 14 13 
   8   1 9 
   2   1 13 
   2   1 13 
   1   1 15 
   4   1 13 
  10   1 24
   2   1 24
   2   1 24
   2   1 24
   8   1 24
  10   1 24
   4   1 24
  10   1 24
   1   1 24
   4   1 24
   5   1 24
   0   0 
